; benchmark generated from python API
(set-info :status unknown)
(declare-datatypes ((RealState 0)) (((RMk1 (rval1 Real)) (RMk2 (rval2 Real)))))
 (declare-fun I2uscore1dollarskuscore546 () Real)
(declare-fun I1uscore1dollarskuscore546 () Real)
(declare-fun ep () Real)
(declare-fun V () Real)
(declare-fun v2uscore1dollarskuscore546 () Real)
(declare-fun v1uscore1dollarskuscore546 () Real)
(declare-fun t1921uscore0 () Real)
(declare-fun x1uscore1dollarskuscore350 () Real)
(declare-fun xI1 () Real)
(declare-fun A () Real)
(declare-fun v2 () Real)
(declare-fun v1 () Real)
(declare-fun B () Real)
(declare-fun x2 () Real)
(declare-fun xI2 () Real)
(declare-fun I2 () Real)
(declare-fun x1 () Real)
(declare-fun I1 () Real)
(declare-fun x2uscore1dollarskuscore386 () Real)
(assert
 (let (($x149 (exists ((ts1921uscore0_st RealState) (val!109 Real) )(let (($x16 (= I2uscore1dollarskuscore546 2.0)))
 (let (($x214 (= I1uscore1dollarskuscore546 2.0)))
 (let (($x44 (or $x214 $x16)))
 (let (($x112 (>= v2uscore1dollarskuscore546 0.0)))
 (let (($x9 (>= v1uscore1dollarskuscore546 0.0)))
 (let (($x247 (and (and (and $x9 (<= v1uscore1dollarskuscore546 V)) $x112) (<= v2uscore1dollarskuscore546 V))))
 (let (($x136 (=> (and (<= 0.0 (rval2 ts1921uscore0_st)) (<= (rval2 ts1921uscore0_st) t1921uscore0)) (and $x247 (<= (+ (rval2 ts1921uscore0_st) 0.0) ep)))))
 (let (($x133 (>= t1921uscore0 0.0)))
 (let (($x27 (= xI1 x1uscore1dollarskuscore350)))
 (let (($x249 (>= A 0.0)))
 (let (($x142 (>= v2 0.0)))
 (let (($x138 (>= v1 0.0)))
 (let (($x164 (= I2 2.0)))
 (let (($x130 (= I1 2.0)))
 (let (($x113 (= v1uscore1dollarskuscore546 0.0)))
 (let (($x161 (= xI2 x2uscore1dollarskuscore386)))
 (let (($x70 (= v2uscore1dollarskuscore546 V)))
 (let (($x158 (and (and (and (and (and $x70 $x161) $x113) $x214) $x130) (< xI1 x1))))
 (let (($x42 (and (and (and (and $x158 $x164) (< xI2 x2)) (> B 0.0)) $x138)))
 (let (($x151 (and (and (and (and (and $x42 (<= v1 V)) $x142) (<= v2 V)) $x249) (> V 0.0))))
 (let (($x148 (and $x151 (> ep 0.0))))
 (let (($x94 (not (= ts1921uscore0_st (RMk1 val!109)))))
 (and $x94 (=> $x148 (or $x27 (=> (and $x133 $x136) $x44)))))))))))))))))))))))))))
 ))
 (not $x149)))
(check-sat)
